
Gurobi 11.0.3 (mac64[x86]) logging started Mon Apr  7 19:50:14 2025

Set parameter LogFile to value "Results/OneScenarioExperiments/option3_without_equality_constraints_v5.log"

Gurobi 11.0.3 (mac64[x86]) logging started Mon Apr  7 19:56:15 2025

Set parameter LogFile to value "Results/OneScenarioExperiments/option3_without_equality_constraints_v5.log"

Gurobi 11.0.3 (mac64[x86]) logging started Mon Apr  7 19:57:38 2025

Set parameter LogFile to value "Results/OneScenarioExperiments/option3_without_equality_constraints_v5.log"

Gurobi 11.0.3 (mac64[x86]) logging started Mon Apr  7 19:58:54 2025

Set parameter LogFile to value "Results/OneScenarioExperiments/option3_without_equality_constraints_v5.log"

Gurobi 11.0.3 (mac64[x86]) logging started Mon Apr  7 20:01:05 2025

Set parameter LogFile to value "Results/OneScenarioExperiments/option3_without_equality_constraints_v5.log"
Set parameter TimeLimit to value 84600
Set parameter Method to value 2
Set parameter Crossover to value 0
Gurobi Optimizer version 11.0.3 build v11.0.3rc0 (mac64[x86] - Darwin 23.4.0 23E214)

CPU model: Intel(R) Core(TM) i7-1060NG7 CPU @ 1.20GHz
Thread count: 4 physical cores, 8 logical processors, using up to 8 threads

Optimize a model with 1494624 rows, 1917920 columns and 7072112 nonzeros
Model fingerprint: 0x89fff246
Coefficient statistics:
  Matrix range     [2e-01, 1e+00]
  Objective range  [6e-05, 5e+00]
  Bounds range     [0e+00, 0e+00]
  RHS range        [1e-02, 1e+03]
Presolve removed 1060357 rows and 1239701 columns (presolve time = 5s) ...
Presolve removed 1197122 rows and 1383357 columns
Presolve time: 9.87s
Presolved: 297502 rows, 534627 columns, 1909361 nonzeros
Ordering time: 0.99s

Barrier statistics:
 AA' NZ     : 3.556e+05
 Factor NZ  : 6.005e+06 (roughly 90 MB of memory)
 Factor Ops : 3.714e+09 (less than 1 second per iteration)
 Threads    : 4

                  Objective                Residual
Iter       Primal          Dual         Primal    Dual     Compl     Time
   0   2.39645153e+06  7.81716818e+09  4.14e+03 5.70e+03  1.01e+07    12s
   1  -6.21611959e+06  7.16592998e+09  9.32e+02 6.48e+03  3.24e+06    12s
   2  -6.46471997e+06  3.31961744e+09  1.34e+02 9.16e+01  1.33e+05    13s
   3  -6.42515472e+06  7.69920900e+08  1.25e+01 6.02e+00  1.82e+04    13s
   4  -6.11322935e+06  1.35229710e+08  6.93e-01 2.36e-01  1.80e+03    13s
   5  -1.79814512e+06  1.06744847e+07  2.31e-03 1.38e-02  1.35e+02    14s
   6  -6.40645900e+04  4.90225314e+05  5.91e-05 3.46e-04  5.97e+00    14s
   7   8.90760064e+03  5.30793051e+04  1.98e-07 4.85e-13  4.71e-01    14s
   8   1.87386434e+04  2.68506800e+04  2.83e-09 7.46e-14  8.48e-02    15s
   9   2.09023597e+04  2.31047279e+04  8.15e-10 2.00e-14  2.28e-02    15s
  10   2.15090947e+04  2.22895764e+04  2.15e-10 7.33e-15  8.07e-03    16s
  11   2.17280699e+04  2.19701459e+04  5.43e-11 3.55e-15  2.50e-03    16s
  12   2.17838658e+04  2.18941904e+04  2.31e-11 7.11e-15  1.14e-03    16s
  13   2.18085822e+04  2.18593763e+04  2.94e-11 3.55e-15  5.25e-04    16s
  14   2.18232262e+04  2.18433846e+04  4.60e-11 3.55e-15  2.08e-04    17s
  15   2.18302609e+04  2.18376007e+04  2.27e-10 1.78e-15  7.59e-05    17s
  16   2.18324213e+04  2.18359290e+04  1.17e-10 3.55e-15  3.63e-05    17s
  17   2.18334007e+04  2.18350446e+04  1.32e-10 3.55e-15  1.70e-05    18s
  18   2.18339876e+04  2.18347044e+04  2.15e-10 3.55e-15  7.41e-06    18s
  19   2.18343294e+04  2.18345278e+04  1.88e-10 3.55e-15  2.05e-06    18s
  20   2.18344367e+04  2.18344824e+04  1.35e-10 3.55e-15  4.73e-07    19s
  21   2.18344629e+04  2.18344764e+04  8.16e-10 3.55e-15  1.40e-07    19s
  22   2.18344726e+04  2.18344743e+04  1.60e-09 3.55e-15  1.70e-08    19s
  23   2.18344738e+04  2.18344739e+04  1.44e-07 3.64e-12  1.31e-09    20s

Barrier solved model in 23 iterations and 19.75 seconds (7.74 work units)
Optimal objective 2.18344738e+04

